 H  O Pt 
 1.0000000000000000
     8.4179899999999996    0.0000000000000000    0.0000000000000000
     4.2089950000000007    7.2901931888033662    0.0000000000000000
     0.0000000000000000    0.0000000000000000   30.4216000000000015
 H  O Pt 
  22   6  27
Direct
  0.3157925504117515  0.3688975422266617  0.5233180575591894
  0.3614031708969070  0.0014508886335564  0.5185470933627011
  0.2420196286147739  0.9830751106688854  0.5565680550999641
  0.5347187563092928  0.4009264984917030  0.5624580941906000
  0.6652108907196322  0.3795734303908843  0.5236840119715175
  0.3220249163587701  0.2881996735827200  0.5700882831402355
  0.0589767417026048  0.5940947719342203  0.5588371749375391
  0.9840806751182453  0.9065969765851202  0.5622890707972538
  0.9042384027010905  0.1183214591506700  0.5682988159743845
  0.9399280276923757  0.7037666771708930  0.5181827550697314
  0.7666672923937444  0.6933185421880138  0.5638419231092134
  0.6494913933386711  0.5735934206151633  0.5655263961062189
  0.5284534615102657  0.8106275892226157  0.5629657182512536
  0.1065609470562147  0.1153123602713898  0.4267233016116273
  0.4462805659001083  0.1146745766338884  0.4257622184448499
  0.7778369621415551  0.1111581891561635  0.4273038388941934
  0.1111720258658831  0.4432396298335936  0.4270215859375679
  0.4410137689874749  0.4487423311787043  0.4275946666217940
  0.7769357614483617  0.4447008118587672  0.4269058559955006
  0.1137805938514623  0.7854142511707861  0.4272987868486831
  0.4433717836182915  0.7811705446209726  0.4261623801884051
  0.7670783136141338  0.7845163631367976  0.4258137772009679
  0.3602742676738304  0.9800159891281303  0.5508201784431043
  0.6533127558116955  0.3959894521175257  0.5561929721317058
  0.3089935315523240  0.3979522130521834  0.5552935478514066
  0.0194692121523302  0.0023852420612624  0.5637110659805575
  0.9395463097478530  0.7044073523768924  0.5512043502399367
  0.6489184264308281  0.6939449536504799  0.5738042606896021
  0.1102613106946982  0.1123806764495955  0.2417860426189841
  0.4439351005717416  0.1123690983221351  0.2416614555013565
  0.7772700134823245  0.1119850469480193  0.2421153697978905
  0.1107643117183319  0.4449023108070724  0.2416089470266992
  0.4437960172661396  0.4455455869945634  0.2420703190422181
  0.7774189421622549  0.4454940240677835  0.2418856931954895
  0.1107353050383122  0.7792509346827291  0.2414974870515915
  0.4438487704842488  0.7785625336331421  0.2413885044082130
  0.7768314258799227  0.7791753478318926  0.2412589571779456
  0.8880957523425463  0.2242823205129063  0.3186744862157908
  0.2206012058345035  0.2253787648400425  0.3180822334915103
  0.5541291872694775  0.2246764929730008  0.3186369600480623
  0.8877615730321373  0.5570493696537165  0.3176649104610096
  0.2217930191044239  0.5575493719541312  0.3178829980471176
  0.5540042413746143  0.5576481068358971  0.3182555866920500
  0.8873755071031491  0.8921287561947395  0.3178655061664938
  0.2204679078422382  0.8903655395405744  0.3178835560354658
  0.5551134361258451  0.8909266399918139  0.3174286957644298
  0.9986035064806135  0.0024725998993523  0.3975442613077694
  0.3317291738299062  0.0020434619703153  0.3938714656377193
  0.6654383177860544  0.0032580340285242  0.3968608772382495
  0.9988908823034323  0.3362252089795690  0.3976093741244091
  0.3310206043857585  0.3379383621146419  0.3973290852471855
  0.6657371066747536  0.3364027193759456  0.3966265719201766
  0.9982262090230453  0.6701824748129991  0.3938696236289457
  0.3314965708640711  0.6694972159628548  0.3975128306917960
  0.6650404352143680  0.6695228202574440  0.3958175686413701
